param set_len = 28;
param target := 17728403;
param values := [1] 305300 [2] 1341812 [3] 1945978 [4] 1275106 [5] 1964572 [6] 403265 [7] 2065698 [8] 733390 [9] 1748384 [10] 1344586 [11] 1981828 [12] 1882930 [13] 357716 [14] 1493249 [15] 1026138 [16] 2057852 [17] 494657 [18] 982427 [19] 1218980 [20] 1134347 [21] 1225439 [22] 121450 [23] 2031491 [24] 1014693 [25] 716482 [26] 552493 [27] 1944802 [28] 1639078 ;
